Academic license - for non-commercial use only
Gurobi Optimizer version 9.0.3 build v9.0.3rc0 (mac64)
Optimize a model with 127786 rows, 120480 columns and 691170 nonzeros
Model fingerprint: 0x329bbd2f
Variable types: 0 continuous, 120480 integer (120480 binary)
Coefficient statistics:
  Matrix range     [1e+00, 1e+00]
  Objective range  [1e+01, 5e+04]
  Bounds range     [1e+00, 1e+00]
  RHS range        [1e+00, 5e+02]
Presolve added 0 rows and 2970 columns
Presolve removed 30 rows and 0 columns
Presolve time: 1.55s
Presolved: 127756 rows, 123450 columns, 520110 nonzeros
Variable types: 0 continuous, 123450 integer (123450 binary)
Found heuristic solution: objective 467877.00000

Concurrent LP optimizer: dual simplex and barrier
Showing barrier log only...

Root barrier log...

Ordering time: 0.03s

Barrier statistics:
 Dense cols : 240
 AA' NZ     : 4.061e+05
 Factor NZ  : 1.637e+06 (roughly 120 MBytes of memory)
 Factor Ops : 2.201e+08 (less than 1 second per iteration)
 Threads    : 3

                  Objective                Residual
Iter       Primal          Dual         Primal    Dual     Compl     Time
   0   1.28789869e+08 -1.77957990e+08  2.83e+02 3.24e+01  1.67e+04     3s
   1   1.48843158e+06 -1.99619859e+08  7.26e+00 7.81e+03  8.09e+02     3s
   2   7.52676659e+05 -5.33426531e+07  1.79e+00 1.56e+03  1.85e+02     3s
   3   7.01976517e+05 -2.46601201e+07  1.42e+00 6.00e+02  8.51e+01     4s
   4   5.79727403e+05 -1.37981304e+06  5.23e-01 5.25e+01  5.87e+00     4s
   5   5.26733931e+05 -2.17835986e+05  2.60e-01 1.78e+01  2.06e+00     4s
   6   4.99067787e+05  1.95903936e+05  1.71e-01 4.83e+00  7.93e-01     4s
   7   4.76222190e+05  3.10809508e+05  1.20e-01 1.95e+00  4.18e-01     4s
   8   4.62981645e+05  3.44726438e+05  9.84e-02 1.16e+00  2.94e-01     4s
   9   4.51313784e+05  3.62437740e+05  8.06e-02 7.43e-01  2.18e-01     5s
  10   4.45470841e+05  3.71641048e+05  7.20e-02 5.24e-01  1.79e-01     5s
  11   4.41376963e+05  3.77942111e+05  6.59e-02 3.76e-01  1.53e-01     5s
  12   4.32595348e+05  3.84543019e+05  5.48e-02 2.13e-01  1.14e-01     5s
  13   4.24554581e+05  3.87200954e+05  4.46e-02 2.03e-01  8.80e-02     5s
  14   4.17841531e+05  3.88945966e+05  3.56e-02 1.24e-01  6.77e-02     5s
  15   4.11200899e+05  3.89975080e+05  2.60e-02 9.01e-02  4.98e-02     6s
  16   4.08528430e+05  3.90802189e+05  2.24e-02 6.68e-02  4.13e-02     6s
  17   4.04394713e+05  3.91393607e+05  1.66e-02 5.09e-02  3.03e-02     6s
  18   4.02673543e+05  3.91810484e+05  1.42e-02 3.72e-02  2.52e-02     6s
  19   4.00487750e+05  3.92116207e+05  1.09e-02 2.98e-02  1.94e-02     6s
  20   3.98945068e+05  3.92297264e+05  8.84e-03 2.15e-02  1.54e-02     6s
  21   3.97542364e+05  3.92488078e+05  6.84e-03 1.83e-02  1.16e-02     6s
  22   3.97084119e+05  3.92684266e+05  6.08e-03 1.32e-02  1.01e-02     6s
  23   3.96706933e+05  3.92755242e+05  5.53e-03 1.26e-02  9.05e-03     7s
  24   3.95838434e+05  3.92852998e+05  4.24e-03 1.04e-02  6.82e-03     7s
  25   3.95456589e+05  3.92944309e+05  3.64e-03 7.82e-03  5.72e-03     7s
  26   3.94979579e+05  3.92978977e+05  2.89e-03 6.97e-03  4.56e-03     7s
  27   3.94771772e+05  3.93044867e+05  2.57e-03 5.49e-03  3.91e-03     7s
  28   3.94542166e+05  3.93095126e+05  2.19e-03 4.32e-03  3.27e-03     7s
  29   3.94332944e+05  3.93154179e+05  1.84e-03 2.92e-03  2.64e-03     7s
  30   3.94160835e+05  3.93175720e+05  1.54e-03 2.33e-03  2.21e-03     8s
  31   3.93952734e+05  3.93193621e+05  1.17e-03 2.07e-03  1.71e-03     8s
  32   3.93875925e+05  3.93208591e+05  1.05e-03 1.65e-03  1.50e-03     8s
  33   3.93805952e+05  3.93219981e+05  9.28e-04 1.43e-03  1.31e-03     8s
  34   3.93737609e+05  3.93226192e+05  8.08e-04 1.21e-03  1.14e-03     8s
  35   3.93647368e+05  3.93231776e+05  6.56e-04 1.06e-03  9.30e-04     8s
  36   3.93598921e+05  3.93242788e+05  5.73e-04 7.87e-04  7.94e-04     8s
  37   3.93533058e+05  3.93249764e+05  4.57e-04 6.90e-04  6.31e-04     8s
  38   3.93481459e+05  3.93257743e+05  3.67e-04 4.85e-04  4.97e-04     9s
  39   3.93440456e+05  3.93262079e+05  2.93e-04 3.33e-04  3.96e-04     9s
  40   3.93399464e+05  3.93265600e+05  2.18e-04 2.95e-04  2.98e-04     9s
  41   3.93391033e+05  3.93269967e+05  2.03e-04 1.94e-04  2.68e-04     9s
  42   3.93345396e+05  3.93272485e+05  1.21e-04 1.40e-04  1.62e-04     9s
  43   3.93311185e+05  3.93275126e+05  5.67e-05 8.48e-05  8.08e-05     9s
  44   3.93296464e+05  3.93277166e+05  2.93e-05 4.65e-05  4.36e-05     9s
  45   3.93295146e+05  3.93277497e+05  2.70e-05 4.12e-05  3.98e-05    10s
  46   3.93286190e+05  3.93278450e+05  1.10e-05 2.38e-05  1.77e-05    10s
  47   3.93282795e+05  3.93279508e+05  4.79e-06 8.50e-06  7.47e-06    10s
  48   3.93281613e+05  3.93279765e+05  2.71e-06 4.40e-06  4.19e-06    10s
  49   3.93281077e+05  3.93279902e+05  1.77e-06 2.44e-06  2.65e-06    10s
  50   3.93280191e+05  3.93280016e+05  1.60e-07 4.16e-07  4.26e-07    10s
  51   3.93280072e+05  3.93280062e+05  4.63e-09 6.15e-07  2.50e-08    10s
  52   3.93280072e+05  3.93280063e+05  4.48e-09 5.79e-07  2.39e-08    10s
  53   3.93280072e+05  3.93280063e+05  5.28e-09 5.89e-07  2.37e-08    11s
  54   3.93280072e+05  3.93280063e+05  5.21e-09 6.01e-07  2.36e-08    11s

Barrier solved model in 54 iterations and 10.65 seconds
Optimal objective 3.93280072e+05


Root crossover log...

   60545 DPushes remaining with DInf 2.5552631e-06                11s
       0 DPushes remaining with DInf 0.0000000e+00                11s

     635 PPushes remaining with PInf 1.0115942e-06                11s
       0 PPushes remaining with PInf 0.0000000e+00                11s

  Push phase complete: Pinf 0.0000000e+00, Dinf 3.9809933e-11     11s


Root simplex log...

Iteration    Objective       Primal Inf.    Dual Inf.      Time
    8795    3.9328007e+05   0.000000e+00   0.000000e+00     11s

Solved with barrier

Root relaxation: objective 3.932801e+05, 8795 iterations, 8.29 seconds

    Nodes    |    Current Node    |     Objective Bounds      |     Work
 Expl Unexpl |  Obj  Depth IntInf | Incumbent    BestBd   Gap | It/Node Time

     0     0 393280.068    0 8717 467877.000 393280.068  15.9%     -   12s
H    0     0                    397399.00000 393280.068  1.04%     -   13s
H    0     0                    396300.00000 393280.068  0.76%     -   19s
     0     0 393283.063    0 9053 396300.000 393283.063  0.76%     -   24s
     0     0 393284.709    0 9045 396300.000 393284.709  0.76%     -   26s
     0     0 393295.272    0 9084 396300.000 393295.272  0.76%     -   30s
     0     0 393297.142    0 8733 396300.000 393297.142  0.76%     -   32s
     0     0 393297.142    0 8734 396300.000 393297.142  0.76%     -   33s
     0     0 393309.507    0 8743 396300.000 393309.507  0.75%     -   39s
     0     0 393310.052    0 8742 396300.000 393310.052  0.75%     -   40s
     0     0 393310.143    0 8743 396300.000 393310.143  0.75%     -   41s
     0     0 393310.407    0 8750 396300.000 393310.407  0.75%     -   41s
     0     0 393310.407    0 8751 396300.000 393310.407  0.75%     -   41s
     0     0 393318.050    0 8781 396300.000 393318.050  0.75%     -   47s
     0     0 393318.444    0 8780 396300.000 393318.444  0.75%     -   48s
     0     0 393318.446    0 8766 396300.000 393318.446  0.75%     -   49s
     0     0 393333.067    0 9062 396300.000 393333.067  0.75%     -   54s
     0     0 393335.099    0 9060 396300.000 393335.099  0.75%     -   56s
     0     0 393336.732    0 9064 396300.000 393336.732  0.75%     -   56s
     0     0 393337.852    0 9204 396300.000 393337.852  0.75%     -   57s
     0     0 393337.859    0 9208 396300.000 393337.859  0.75%     -   57s
     0     0 393345.298    0 9066 396300.000 393345.298  0.75%     -   62s
H    0     0                    396260.00000 393345.298  0.74%     -   68s
     0     0 393345.653    0 9077 396260.000 393345.653  0.74%     -   69s
     0     0 393345.725    0 9075 396260.000 393345.725  0.74%     -   69s
     0     0 393345.731    0 9072 396260.000 393345.731  0.74%     -   69s
     0     0 393345.731    0 9073 396260.000 393345.731  0.74%     -   71s
     0     0 393350.800    0 9252 396260.000 393350.800  0.73%     -   77s
     0     0 393352.128    0 9102 396260.000 393352.128  0.73%     -   78s
     0     0 393352.166    0 9236 396260.000 393352.166  0.73%     -   79s
     0     0 393352.177    0 9252 396260.000 393352.177  0.73%     -   81s
     0     0 393352.177    0 9253 396260.000 393352.177  0.73%     -   82s
     0     0 393360.777    0 9231 396260.000 393360.777  0.73%     -   88s
     0     0 393360.859    0 9232 396260.000 393360.859  0.73%     -   89s
     0     0 393360.874    0 9241 396260.000 393360.874  0.73%     -   89s
     0     0 393360.888    0 9245 396260.000 393360.888  0.73%     -   91s
     0     0 393360.888    0 9245 396260.000 393360.888  0.73%     -   92s
     0     0 393360.888    0 9245 396260.000 393360.888  0.73%     -   94s
     0     0 393360.888    0 9245 396260.000 393360.888  0.73%     -   95s
     0     0 393360.888    0 9217 396260.000 393360.888  0.73%     -   99s
H    0     0                    394213.00000 393360.888  0.22%     -  115s
     0     0 393360.888    0 8672 394213.000 393360.888  0.22%     -  131s
H    0     0                    394180.00000 393360.888  0.21%     -  133s
     0     0 393360.888    0 9173 394180.000 393360.888  0.21%     -  141s
H    0     0                    394172.00000 393360.888  0.21%     -  147s
     0     0 393363.330    0 9178 394172.000 393363.330  0.21%     -  148s
     0     0 393363.529    0 9153 394172.000 393363.529  0.21%     -  149s
     0     0 393363.538    0 9170 394172.000 393363.538  0.21%     -  149s
     0     0 393368.406    0 9162 394172.000 393368.406  0.20%     -  155s
     0     0 393369.715    0 9173 394172.000 393369.715  0.20%     -  156s
     0     0 393369.719    0 9176 394172.000 393369.719  0.20%     -  156s
     0     0 393375.153    0 9532 394172.000 393375.153  0.20%     -  163s
     0     0 393375.707    0 9162 394172.000 393375.707  0.20%     -  164s
     0     0 393375.726    0 9175 394172.000 393375.726  0.20%     -  165s
     0     0 393375.726    0 9173 394172.000 393375.726  0.20%     -  167s
     0     0 393375.726    0 9172 394172.000 393375.726  0.20%     -  168s
     0     0 393375.726    0 9148 394172.000 393375.726  0.20%     -  171s
     0     2 393375.726    0 9148 394172.000 393375.726  0.20%     -  185s
     1     4 393660.821    1 8510 394172.000 393376.010  0.20% 10506  196s
     3     6 393835.312    2 8487 394172.000 393657.935  0.13%  8973  211s
     7     8 393939.744    3 8766 394172.000 393814.319  0.09%  7972  220s
    11     8 394067.941    4 7951 394172.000 393814.698  0.09%  6706  231s
    15     8     cutoff    4      394172.000 393814.698  0.09%  6658  238s
    19    10 394110.047    5 8406 394172.000 393814.698  0.09%  5569  243s
    23    10     cutoff    5      394172.000 393814.698  0.09%  4871  247s
    29     7     cutoff    9      394172.000 393856.792  0.08%  4154  251s
H   32     7                    394165.00000 393856.792  0.08%  3949  252s
    41     8 394030.362   12 5748 394165.000 393856.792  0.08%  3246  256s
    58    20 394077.000   17 4123 394165.000 393856.792  0.08%  2445  261s
    94    41 394088.242   27 6939 394165.000 393856.792  0.08%  1587  270s
   116    71     cutoff   29      394165.000 393856.792  0.08%  1334  275s
   192   117 394139.123   44 6938 394165.000 393856.792  0.08%   860  280s
   231   143     cutoff   48      394165.000 394026.138  0.04%   740  289s
   255   154     cutoff   23      394165.000 394044.226  0.03%   711  291s
   288   184 394110.846   20 3815 394165.000 394054.846  0.03%   643  297s
   374   206 394075.625   19 6468 394165.000 394058.888  0.03%   529  300s

Cutting planes:
  Gomory: 2
  Cover: 2
  Zero half: 161

Explored 424 nodes (242625 simplex iterations) in 300.14 seconds
Thread count was 8 (of 8 available processors)

Solution count 8: 394165 394172 394180 ... 467877

Time limit reached
Best objective 3.941650000000e+05, best bound 3.940590000000e+05, gap 0.0269%

User-callback calls 52258, time in user-callback 0.33 sec
Solution written to /Users/mdeboute/Desktop/Etudes/Master/M2/S9/GOPP/Projet/multi-period-flp/solution/instMulti_I30_J500_T8_1_result.txt
